c created by edge2cnf
p cnf 500 3100
-1 -2 0
-1 -3 0
-1 -4 0
-1 -5 0
-2 -3 0
-2 -4 0
-2 -5 0
-3 -4 0
-3 -5 0
-4 -5 0
1 2 3 4 5 0
-6 -7 0
-6 -8 0
-6 -9 0
-6 -10 0
-7 -8 0
-7 -9 0
-7 -10 0
-8 -9 0
-8 -10 0
-9 -10 0
6 7 8 9 10 0
-11 -12 0
-11 -13 0
-11 -14 0
-11 -15 0
-12 -13 0
-12 -14 0
-12 -15 0
-13 -14 0
-13 -15 0
-14 -15 0
11 12 13 14 15 0
-16 -17 0
-16 -18 0
-16 -19 0
-16 -20 0
-17 -18 0
-17 -19 0
-17 -20 0
-18 -19 0
-18 -20 0
-19 -20 0
16 17 18 19 20 0
-21 -22 0
-21 -23 0
-21 -24 0
-21 -25 0
-22 -23 0
-22 -24 0
-22 -25 0
-23 -24 0
-23 -25 0
-24 -25 0
21 22 23 24 25 0
-26 -27 0
-26 -28 0
-26 -29 0
-26 -30 0
-27 -28 0
-27 -29 0
-27 -30 0
-28 -29 0
-28 -30 0
-29 -30 0
26 27 28 29 30 0
-31 -32 0
-31 -33 0
-31 -34 0
-31 -35 0
-32 -33 0
-32 -34 0
-32 -35 0
-33 -34 0
-33 -35 0
-34 -35 0
31 32 33 34 35 0
-36 -37 0
-36 -38 0
-36 -39 0
-36 -40 0
-37 -38 0
-37 -39 0
-37 -40 0
-38 -39 0
-38 -40 0
-39 -40 0
36 37 38 39 40 0
-41 -42 0
-41 -43 0
-41 -44 0
-41 -45 0
-42 -43 0
-42 -44 0
-42 -45 0
-43 -44 0
-43 -45 0
-44 -45 0
41 42 43 44 45 0
-46 -47 0
-46 -48 0
-46 -49 0
-46 -50 0
-47 -48 0
-47 -49 0
-47 -50 0
-48 -49 0
-48 -50 0
-49 -50 0
46 47 48 49 50 0
-51 -52 0
-51 -53 0
-51 -54 0
-51 -55 0
-52 -53 0
-52 -54 0
-52 -55 0
-53 -54 0
-53 -55 0
-54 -55 0
51 52 53 54 55 0
-56 -57 0
-56 -58 0
-56 -59 0
-56 -60 0
-57 -58 0
-57 -59 0
-57 -60 0
-58 -59 0
-58 -60 0
-59 -60 0
56 57 58 59 60 0
-61 -62 0
-61 -63 0
-61 -64 0
-61 -65 0
-62 -63 0
-62 -64 0
-62 -65 0
-63 -64 0
-63 -65 0
-64 -65 0
61 62 63 64 65 0
-66 -67 0
-66 -68 0
-66 -69 0
-66 -70 0
-67 -68 0
-67 -69 0
-67 -70 0
-68 -69 0
-68 -70 0
-69 -70 0
66 67 68 69 70 0
-71 -72 0
-71 -73 0
-71 -74 0
-71 -75 0
-72 -73 0
-72 -74 0
-72 -75 0
-73 -74 0
-73 -75 0
-74 -75 0
71 72 73 74 75 0
-76 -77 0
-76 -78 0
-76 -79 0
-76 -80 0
-77 -78 0
-77 -79 0
-77 -80 0
-78 -79 0
-78 -80 0
-79 -80 0
76 77 78 79 80 0
-81 -82 0
-81 -83 0
-81 -84 0
-81 -85 0
-82 -83 0
-82 -84 0
-82 -85 0
-83 -84 0
-83 -85 0
-84 -85 0
81 82 83 84 85 0
-86 -87 0
-86 -88 0
-86 -89 0
-86 -90 0
-87 -88 0
-87 -89 0
-87 -90 0
-88 -89 0
-88 -90 0
-89 -90 0
86 87 88 89 90 0
-91 -92 0
-91 -93 0
-91 -94 0
-91 -95 0
-92 -93 0
-92 -94 0
-92 -95 0
-93 -94 0
-93 -95 0
-94 -95 0
91 92 93 94 95 0
-96 -97 0
-96 -98 0
-96 -99 0
-96 -100 0
-97 -98 0
-97 -99 0
-97 -100 0
-98 -99 0
-98 -100 0
-99 -100 0
96 97 98 99 100 0
-101 -102 0
-101 -103 0
-101 -104 0
-101 -105 0
-102 -103 0
-102 -104 0
-102 -105 0
-103 -104 0
-103 -105 0
-104 -105 0
101 102 103 104 105 0
-106 -107 0
-106 -108 0
-106 -109 0
-106 -110 0
-107 -108 0
-107 -109 0
-107 -110 0
-108 -109 0
-108 -110 0
-109 -110 0
106 107 108 109 110 0
-111 -112 0
-111 -113 0
-111 -114 0
-111 -115 0
-112 -113 0
-112 -114 0
-112 -115 0
-113 -114 0
-113 -115 0
-114 -115 0
111 112 113 114 115 0
-116 -117 0
-116 -118 0
-116 -119 0
-116 -120 0
-117 -118 0
-117 -119 0
-117 -120 0
-118 -119 0
-118 -120 0
-119 -120 0
116 117 118 119 120 0
-121 -122 0
-121 -123 0
-121 -124 0
-121 -125 0
-122 -123 0
-122 -124 0
-122 -125 0
-123 -124 0
-123 -125 0
-124 -125 0
121 122 123 124 125 0
-126 -127 0
-126 -128 0
-126 -129 0
-126 -130 0
-127 -128 0
-127 -129 0
-127 -130 0
-128 -129 0
-128 -130 0
-129 -130 0
126 127 128 129 130 0
-131 -132 0
-131 -133 0
-131 -134 0
-131 -135 0
-132 -133 0
-132 -134 0
-132 -135 0
-133 -134 0
-133 -135 0
-134 -135 0
131 132 133 134 135 0
-136 -137 0
-136 -138 0
-136 -139 0
-136 -140 0
-137 -138 0
-137 -139 0
-137 -140 0
-138 -139 0
-138 -140 0
-139 -140 0
136 137 138 139 140 0
-141 -142 0
-141 -143 0
-141 -144 0
-141 -145 0
-142 -143 0
-142 -144 0
-142 -145 0
-143 -144 0
-143 -145 0
-144 -145 0
141 142 143 144 145 0
-146 -147 0
-146 -148 0
-146 -149 0
-146 -150 0
-147 -148 0
-147 -149 0
-147 -150 0
-148 -149 0
-148 -150 0
-149 -150 0
146 147 148 149 150 0
-151 -152 0
-151 -153 0
-151 -154 0
-151 -155 0
-152 -153 0
-152 -154 0
-152 -155 0
-153 -154 0
-153 -155 0
-154 -155 0
151 152 153 154 155 0
-156 -157 0
-156 -158 0
-156 -159 0
-156 -160 0
-157 -158 0
-157 -159 0
-157 -160 0
-158 -159 0
-158 -160 0
-159 -160 0
156 157 158 159 160 0
-161 -162 0
-161 -163 0
-161 -164 0
-161 -165 0
-162 -163 0
-162 -164 0
-162 -165 0
-163 -164 0
-163 -165 0
-164 -165 0
161 162 163 164 165 0
-166 -167 0
-166 -168 0
-166 -169 0
-166 -170 0
-167 -168 0
-167 -169 0
-167 -170 0
-168 -169 0
-168 -170 0
-169 -170 0
166 167 168 169 170 0
-171 -172 0
-171 -173 0
-171 -174 0
-171 -175 0
-172 -173 0
-172 -174 0
-172 -175 0
-173 -174 0
-173 -175 0
-174 -175 0
171 172 173 174 175 0
-176 -177 0
-176 -178 0
-176 -179 0
-176 -180 0
-177 -178 0
-177 -179 0
-177 -180 0
-178 -179 0
-178 -180 0
-179 -180 0
176 177 178 179 180 0
-181 -182 0
-181 -183 0
-181 -184 0
-181 -185 0
-182 -183 0
-182 -184 0
-182 -185 0
-183 -184 0
-183 -185 0
-184 -185 0
181 182 183 184 185 0
-186 -187 0
-186 -188 0
-186 -189 0
-186 -190 0
-187 -188 0
-187 -189 0
-187 -190 0
-188 -189 0
-188 -190 0
-189 -190 0
186 187 188 189 190 0
-191 -192 0
-191 -193 0
-191 -194 0
-191 -195 0
-192 -193 0
-192 -194 0
-192 -195 0
-193 -194 0
-193 -195 0
-194 -195 0
191 192 193 194 195 0
-196 -197 0
-196 -198 0
-196 -199 0
-196 -200 0
-197 -198 0
-197 -199 0
-197 -200 0
-198 -199 0
-198 -200 0
-199 -200 0
196 197 198 199 200 0
-201 -202 0
-201 -203 0
-201 -204 0
-201 -205 0
-202 -203 0
-202 -204 0
-202 -205 0
-203 -204 0
-203 -205 0
-204 -205 0
201 202 203 204 205 0
-206 -207 0
-206 -208 0
-206 -209 0
-206 -210 0
-207 -208 0
-207 -209 0
-207 -210 0
-208 -209 0
-208 -210 0
-209 -210 0
206 207 208 209 210 0
-211 -212 0
-211 -213 0
-211 -214 0
-211 -215 0
-212 -213 0
-212 -214 0
-212 -215 0
-213 -214 0
-213 -215 0
-214 -215 0
211 212 213 214 215 0
-216 -217 0
-216 -218 0
-216 -219 0
-216 -220 0
-217 -218 0
-217 -219 0
-217 -220 0
-218 -219 0
-218 -220 0
-219 -220 0
216 217 218 219 220 0
-221 -222 0
-221 -223 0
-221 -224 0
-221 -225 0
-222 -223 0
-222 -224 0
-222 -225 0
-223 -224 0
-223 -225 0
-224 -225 0
221 222 223 224 225 0
-226 -227 0
-226 -228 0
-226 -229 0
-226 -230 0
-227 -228 0
-227 -229 0
-227 -230 0
-228 -229 0
-228 -230 0
-229 -230 0
226 227 228 229 230 0
-231 -232 0
-231 -233 0
-231 -234 0
-231 -235 0
-232 -233 0
-232 -234 0
-232 -235 0
-233 -234 0
-233 -235 0
-234 -235 0
231 232 233 234 235 0
-236 -237 0
-236 -238 0
-236 -239 0
-236 -240 0
-237 -238 0
-237 -239 0
-237 -240 0
-238 -239 0
-238 -240 0
-239 -240 0
236 237 238 239 240 0
-241 -242 0
-241 -243 0
-241 -244 0
-241 -245 0
-242 -243 0
-242 -244 0
-242 -245 0
-243 -244 0
-243 -245 0
-244 -245 0
241 242 243 244 245 0
-246 -247 0
-246 -248 0
-246 -249 0
-246 -250 0
-247 -248 0
-247 -249 0
-247 -250 0
-248 -249 0
-248 -250 0
-249 -250 0
246 247 248 249 250 0
-251 -252 0
-251 -253 0
-251 -254 0
-251 -255 0
-252 -253 0
-252 -254 0
-252 -255 0
-253 -254 0
-253 -255 0
-254 -255 0
251 252 253 254 255 0
-256 -257 0
-256 -258 0
-256 -259 0
-256 -260 0
-257 -258 0
-257 -259 0
-257 -260 0
-258 -259 0
-258 -260 0
-259 -260 0
256 257 258 259 260 0
-261 -262 0
-261 -263 0
-261 -264 0
-261 -265 0
-262 -263 0
-262 -264 0
-262 -265 0
-263 -264 0
-263 -265 0
-264 -265 0
261 262 263 264 265 0
-266 -267 0
-266 -268 0
-266 -269 0
-266 -270 0
-267 -268 0
-267 -269 0
-267 -270 0
-268 -269 0
-268 -270 0
-269 -270 0
266 267 268 269 270 0
-271 -272 0
-271 -273 0
-271 -274 0
-271 -275 0
-272 -273 0
-272 -274 0
-272 -275 0
-273 -274 0
-273 -275 0
-274 -275 0
271 272 273 274 275 0
-276 -277 0
-276 -278 0
-276 -279 0
-276 -280 0
-277 -278 0
-277 -279 0
-277 -280 0
-278 -279 0
-278 -280 0
-279 -280 0
276 277 278 279 280 0
-281 -282 0
-281 -283 0
-281 -284 0
-281 -285 0
-282 -283 0
-282 -284 0
-282 -285 0
-283 -284 0
-283 -285 0
-284 -285 0
281 282 283 284 285 0
-286 -287 0
-286 -288 0
-286 -289 0
-286 -290 0
-287 -288 0
-287 -289 0
-287 -290 0
-288 -289 0
-288 -290 0
-289 -290 0
286 287 288 289 290 0
-291 -292 0
-291 -293 0
-291 -294 0
-291 -295 0
-292 -293 0
-292 -294 0
-292 -295 0
-293 -294 0
-293 -295 0
-294 -295 0
291 292 293 294 295 0
-296 -297 0
-296 -298 0
-296 -299 0
-296 -300 0
-297 -298 0
-297 -299 0
-297 -300 0
-298 -299 0
-298 -300 0
-299 -300 0
296 297 298 299 300 0
-301 -302 0
-301 -303 0
-301 -304 0
-301 -305 0
-302 -303 0
-302 -304 0
-302 -305 0
-303 -304 0
-303 -305 0
-304 -305 0
301 302 303 304 305 0
-306 -307 0
-306 -308 0
-306 -309 0
-306 -310 0
-307 -308 0
-307 -309 0
-307 -310 0
-308 -309 0
-308 -310 0
-309 -310 0
306 307 308 309 310 0
-311 -312 0
-311 -313 0
-311 -314 0
-311 -315 0
-312 -313 0
-312 -314 0
-312 -315 0
-313 -314 0
-313 -315 0
-314 -315 0
311 312 313 314 315 0
-316 -317 0
-316 -318 0
-316 -319 0
-316 -320 0
-317 -318 0
-317 -319 0
-317 -320 0
-318 -319 0
-318 -320 0
-319 -320 0
316 317 318 319 320 0
-321 -322 0
-321 -323 0
-321 -324 0
-321 -325 0
-322 -323 0
-322 -324 0
-322 -325 0
-323 -324 0
-323 -325 0
-324 -325 0
321 322 323 324 325 0
-326 -327 0
-326 -328 0
-326 -329 0
-326 -330 0
-327 -328 0
-327 -329 0
-327 -330 0
-328 -329 0
-328 -330 0
-329 -330 0
326 327 328 329 330 0
-331 -332 0
-331 -333 0
-331 -334 0
-331 -335 0
-332 -333 0
-332 -334 0
-332 -335 0
-333 -334 0
-333 -335 0
-334 -335 0
331 332 333 334 335 0
-336 -337 0
-336 -338 0
-336 -339 0
-336 -340 0
-337 -338 0
-337 -339 0
-337 -340 0
-338 -339 0
-338 -340 0
-339 -340 0
336 337 338 339 340 0
-341 -342 0
-341 -343 0
-341 -344 0
-341 -345 0
-342 -343 0
-342 -344 0
-342 -345 0
-343 -344 0
-343 -345 0
-344 -345 0
341 342 343 344 345 0
-346 -347 0
-346 -348 0
-346 -349 0
-346 -350 0
-347 -348 0
-347 -349 0
-347 -350 0
-348 -349 0
-348 -350 0
-349 -350 0
346 347 348 349 350 0
-351 -352 0
-351 -353 0
-351 -354 0
-351 -355 0
-352 -353 0
-352 -354 0
-352 -355 0
-353 -354 0
-353 -355 0
-354 -355 0
351 352 353 354 355 0
-356 -357 0
-356 -358 0
-356 -359 0
-356 -360 0
-357 -358 0
-357 -359 0
-357 -360 0
-358 -359 0
-358 -360 0
-359 -360 0
356 357 358 359 360 0
-361 -362 0
-361 -363 0
-361 -364 0
-361 -365 0
-362 -363 0
-362 -364 0
-362 -365 0
-363 -364 0
-363 -365 0
-364 -365 0
361 362 363 364 365 0
-366 -367 0
-366 -368 0
-366 -369 0
-366 -370 0
-367 -368 0
-367 -369 0
-367 -370 0
-368 -369 0
-368 -370 0
-369 -370 0
366 367 368 369 370 0
-371 -372 0
-371 -373 0
-371 -374 0
-371 -375 0
-372 -373 0
-372 -374 0
-372 -375 0
-373 -374 0
-373 -375 0
-374 -375 0
371 372 373 374 375 0
-376 -377 0
-376 -378 0
-376 -379 0
-376 -380 0
-377 -378 0
-377 -379 0
-377 -380 0
-378 -379 0
-378 -380 0
-379 -380 0
376 377 378 379 380 0
-381 -382 0
-381 -383 0
-381 -384 0
-381 -385 0
-382 -383 0
-382 -384 0
-382 -385 0
-383 -384 0
-383 -385 0
-384 -385 0
381 382 383 384 385 0
-386 -387 0
-386 -388 0
-386 -389 0
-386 -390 0
-387 -388 0
-387 -389 0
-387 -390 0
-388 -389 0
-388 -390 0
-389 -390 0
386 387 388 389 390 0
-391 -392 0
-391 -393 0
-391 -394 0
-391 -395 0
-392 -393 0
-392 -394 0
-392 -395 0
-393 -394 0
-393 -395 0
-394 -395 0
391 392 393 394 395 0
-396 -397 0
-396 -398 0
-396 -399 0
-396 -400 0
-397 -398 0
-397 -399 0
-397 -400 0
-398 -399 0
-398 -400 0
-399 -400 0
396 397 398 399 400 0
-401 -402 0
-401 -403 0
-401 -404 0
-401 -405 0
-402 -403 0
-402 -404 0
-402 -405 0
-403 -404 0
-403 -405 0
-404 -405 0
401 402 403 404 405 0
-406 -407 0
-406 -408 0
-406 -409 0
-406 -410 0
-407 -408 0
-407 -409 0
-407 -410 0
-408 -409 0
-408 -410 0
-409 -410 0
406 407 408 409 410 0
-411 -412 0
-411 -413 0
-411 -414 0
-411 -415 0
-412 -413 0
-412 -414 0
-412 -415 0
-413 -414 0
-413 -415 0
-414 -415 0
411 412 413 414 415 0
-416 -417 0
-416 -418 0
-416 -419 0
-416 -420 0
-417 -418 0
-417 -419 0
-417 -420 0
-418 -419 0
-418 -420 0
-419 -420 0
416 417 418 419 420 0
-421 -422 0
-421 -423 0
-421 -424 0
-421 -425 0
-422 -423 0
-422 -424 0
-422 -425 0
-423 -424 0
-423 -425 0
-424 -425 0
421 422 423 424 425 0
-426 -427 0
-426 -428 0
-426 -429 0
-426 -430 0
-427 -428 0
-427 -429 0
-427 -430 0
-428 -429 0
-428 -430 0
-429 -430 0
426 427 428 429 430 0
-431 -432 0
-431 -433 0
-431 -434 0
-431 -435 0
-432 -433 0
-432 -434 0
-432 -435 0
-433 -434 0
-433 -435 0
-434 -435 0
431 432 433 434 435 0
-436 -437 0
-436 -438 0
-436 -439 0
-436 -440 0
-437 -438 0
-437 -439 0
-437 -440 0
-438 -439 0
-438 -440 0
-439 -440 0
436 437 438 439 440 0
-441 -442 0
-441 -443 0
-441 -444 0
-441 -445 0
-442 -443 0
-442 -444 0
-442 -445 0
-443 -444 0
-443 -445 0
-444 -445 0
441 442 443 444 445 0
-446 -447 0
-446 -448 0
-446 -449 0
-446 -450 0
-447 -448 0
-447 -449 0
-447 -450 0
-448 -449 0
-448 -450 0
-449 -450 0
446 447 448 449 450 0
-451 -452 0
-451 -453 0
-451 -454 0
-451 -455 0
-452 -453 0
-452 -454 0
-452 -455 0
-453 -454 0
-453 -455 0
-454 -455 0
451 452 453 454 455 0
-456 -457 0
-456 -458 0
-456 -459 0
-456 -460 0
-457 -458 0
-457 -459 0
-457 -460 0
-458 -459 0
-458 -460 0
-459 -460 0
456 457 458 459 460 0
-461 -462 0
-461 -463 0
-461 -464 0
-461 -465 0
-462 -463 0
-462 -464 0
-462 -465 0
-463 -464 0
-463 -465 0
-464 -465 0
461 462 463 464 465 0
-466 -467 0
-466 -468 0
-466 -469 0
-466 -470 0
-467 -468 0
-467 -469 0
-467 -470 0
-468 -469 0
-468 -470 0
-469 -470 0
466 467 468 469 470 0
-471 -472 0
-471 -473 0
-471 -474 0
-471 -475 0
-472 -473 0
-472 -474 0
-472 -475 0
-473 -474 0
-473 -475 0
-474 -475 0
471 472 473 474 475 0
-476 -477 0
-476 -478 0
-476 -479 0
-476 -480 0
-477 -478 0
-477 -479 0
-477 -480 0
-478 -479 0
-478 -480 0
-479 -480 0
476 477 478 479 480 0
-481 -482 0
-481 -483 0
-481 -484 0
-481 -485 0
-482 -483 0
-482 -484 0
-482 -485 0
-483 -484 0
-483 -485 0
-484 -485 0
481 482 483 484 485 0
-486 -487 0
-486 -488 0
-486 -489 0
-486 -490 0
-487 -488 0
-487 -489 0
-487 -490 0
-488 -489 0
-488 -490 0
-489 -490 0
486 487 488 489 490 0
-491 -492 0
-491 -493 0
-491 -494 0
-491 -495 0
-492 -493 0
-492 -494 0
-492 -495 0
-493 -494 0
-493 -495 0
-494 -495 0
491 492 493 494 495 0
-496 -497 0
-496 -498 0
-496 -499 0
-496 -500 0
-497 -498 0
-497 -499 0
-497 -500 0
-498 -499 0
-498 -500 0
-499 -500 0
496 497 498 499 500 0
-1 -16 0
-2 -17 0
-3 -18 0
-4 -19 0
-5 -20 0
-36 -46 0
-37 -47 0
-38 -48 0
-39 -49 0
-40 -50 0
-51 -56 0
-52 -57 0
-53 -58 0
-54 -59 0
-55 -60 0
-66 -71 0
-67 -72 0
-68 -73 0
-69 -74 0
-70 -75 0
-101 -116 0
-102 -117 0
-103 -118 0
-104 -119 0
-105 -120 0
-106 -111 0
-107 -112 0
-108 -113 0
-109 -114 0
-110 -115 0
-116 -131 0
-117 -132 0
-118 -133 0
-119 -134 0
-120 -135 0
-121 -131 0
-122 -132 0
-123 -133 0
-124 -134 0
-125 -135 0
-126 -136 0
-127 -137 0
-128 -138 0
-129 -139 0
-130 -140 0
-146 -151 0
-147 -152 0
-148 -153 0
-149 -154 0
-150 -155 0
-161 -181 0
-162 -182 0
-163 -183 0
-164 -184 0
-165 -185 0
-171 -181 0
-172 -182 0
-173 -183 0
-174 -184 0
-175 -185 0
-176 -196 0
-177 -197 0
-178 -198 0
-179 -199 0
-180 -200 0
-191 -201 0
-192 -202 0
-193 -203 0
-194 -204 0
-195 -205 0
-191 -206 0
-192 -207 0
-193 -208 0
-194 -209 0
-195 -210 0
-196 -206 0
-197 -207 0
-198 -208 0
-199 -209 0
-200 -210 0
-221 -236 0
-222 -237 0
-223 -238 0
-224 -239 0
-225 -240 0
-226 -246 0
-227 -247 0
-228 -248 0
-229 -249 0
-230 -250 0
-236 -241 0
-237 -242 0
-238 -243 0
-239 -244 0
-240 -245 0
-271 -276 0
-272 -277 0
-273 -278 0
-274 -279 0
-275 -280 0
-271 -291 0
-272 -292 0
-273 -293 0
-274 -294 0
-275 -295 0
-276 -291 0
-277 -292 0
-278 -293 0
-279 -294 0
-280 -295 0
-286 -296 0
-287 -297 0
-288 -298 0
-289 -299 0
-290 -300 0
-286 -301 0
-287 -302 0
-288 -303 0
-289 -304 0
-290 -305 0
-291 -296 0
-292 -297 0
-293 -298 0
-294 -299 0
-295 -300 0
-311 -321 0
-312 -322 0
-313 -323 0
-314 -324 0
-315 -325 0
-311 -331 0
-312 -332 0
-313 -333 0
-314 -334 0
-315 -335 0
-331 -341 0
-332 -342 0
-333 -343 0
-334 -344 0
-335 -345 0
-346 -361 0
-347 -362 0
-348 -363 0
-349 -364 0
-350 -365 0
-441 -456 0
-442 -457 0
-443 -458 0
-444 -459 0
-445 -460 0
-446 -451 0
-447 -452 0
-448 -453 0
-449 -454 0
-450 -455 0
-6 -491 0
-7 -492 0
-8 -493 0
-9 -494 0
-10 -495 0
-1 -496 0
-2 -497 0
-3 -498 0
-4 -499 0
-5 -500 0
-11 -491 0
-12 -492 0
-13 -493 0
-14 -494 0
-15 -495 0
-1 -491 0
-2 -492 0
-3 -493 0
-4 -494 0
-5 -495 0
-1 -486 0
-2 -487 0
-3 -488 0
-4 -489 0
-5 -490 0
-486 -491 0
-487 -492 0
-488 -493 0
-489 -494 0
-490 -495 0
-1 -481 0
-2 -482 0
-3 -483 0
-4 -484 0
-5 -485 0
-481 -496 0
-482 -497 0
-483 -498 0
-484 -499 0
-485 -500 0
-481 -486 0
-482 -487 0
-483 -488 0
-484 -489 0
-485 -490 0
-471 -491 0
-472 -492 0
-473 -493 0
-474 -494 0
-475 -495 0
-471 -486 0
-472 -487 0
-473 -488 0
-474 -489 0
-475 -490 0
-471 -481 0
-472 -482 0
-473 -483 0
-474 -484 0
-475 -485 0
-466 -481 0
-467 -482 0
-468 -483 0
-469 -484 0
-470 -485 0
-461 -471 0
-462 -472 0
-463 -473 0
-464 -474 0
-465 -475 0
-461 -466 0
-462 -467 0
-463 -468 0
-464 -469 0
-465 -470 0
-451 -456 0
-452 -457 0
-453 -458 0
-454 -459 0
-455 -460 0
-446 -461 0
-447 -462 0
-448 -463 0
-449 -464 0
-450 -465 0
-446 -456 0
-447 -457 0
-448 -458 0
-449 -459 0
-450 -460 0
-441 -461 0
-442 -462 0
-443 -463 0
-444 -464 0
-445 -465 0
-436 -456 0
-437 -457 0
-438 -458 0
-439 -459 0
-440 -460 0
-436 -451 0
-437 -452 0
-438 -453 0
-439 -454 0
-440 -455 0
-436 -441 0
-437 -442 0
-438 -443 0
-439 -444 0
-440 -445 0
-431 -451 0
-432 -452 0
-433 -453 0
-434 -454 0
-435 -455 0
-431 -446 0
-432 -447 0
-433 -448 0
-434 -449 0
-435 -450 0
-426 -446 0
-427 -447 0
-428 -448 0
-429 -449 0
-430 -450 0
-426 -436 0
-427 -437 0
-428 -438 0
-429 -439 0
-430 -440 0
-426 -431 0
-427 -432 0
-428 -433 0
-429 -434 0
-430 -435 0
-421 -441 0
-422 -442 0
-423 -443 0
-424 -444 0
-425 -445 0
-421 -431 0
-422 -432 0
-423 -433 0
-424 -434 0
-425 -435 0
-416 -436 0
-417 -437 0
-418 -438 0
-419 -439 0
-420 -440 0
-411 -431 0
-412 -432 0
-413 -433 0
-414 -434 0
-415 -435 0
-411 -416 0
-412 -417 0
-413 -418 0
-414 -419 0
-415 -420 0
-406 -416 0
-407 -417 0
-408 -418 0
-409 -419 0
-410 -420 0
-406 -411 0
-407 -412 0
-408 -413 0
-409 -414 0
-410 -415 0
-401 -421 0
-402 -422 0
-403 -423 0
-404 -424 0
-405 -425 0
-401 -416 0
-402 -417 0
-403 -418 0
-404 -419 0
-405 -420 0
-401 -411 0
-402 -412 0
-403 -413 0
-404 -414 0
-405 -415 0
-396 -416 0
-397 -417 0
-398 -418 0
-399 -419 0
-400 -420 0
-396 -411 0
-397 -412 0
-398 -413 0
-399 -414 0
-400 -415 0
-396 -401 0
-397 -402 0
-398 -403 0
-399 -404 0
-400 -405 0
-391 -406 0
-392 -407 0
-393 -408 0
-394 -409 0
-395 -410 0
-386 -406 0
-387 -407 0
-388 -408 0
-389 -409 0
-390 -410 0
-386 -401 0
-387 -402 0
-388 -403 0
-389 -404 0
-390 -405 0
-386 -396 0
-387 -397 0
-388 -398 0
-389 -399 0
-390 -400 0
-386 -391 0
-387 -392 0
-388 -393 0
-389 -394 0
-390 -395 0
-381 -401 0
-382 -402 0
-383 -403 0
-384 -404 0
-385 -405 0
-376 -391 0
-377 -392 0
-378 -393 0
-379 -394 0
-380 -395 0
-371 -391 0
-372 -392 0
-373 -393 0
-374 -394 0
-375 -395 0
-371 -381 0
-372 -382 0
-373 -383 0
-374 -384 0
-375 -385 0
-371 -376 0
-372 -377 0
-373 -378 0
-374 -379 0
-375 -380 0
-361 -381 0
-362 -382 0
-363 -383 0
-364 -384 0
-365 -385 0
-361 -376 0
-362 -377 0
-363 -378 0
-364 -379 0
-365 -380 0
-361 -366 0
-362 -367 0
-363 -368 0
-364 -369 0
-365 -370 0
-356 -376 0
-357 -377 0
-358 -378 0
-359 -379 0
-360 -380 0
-356 -366 0
-357 -367 0
-358 -368 0
-359 -369 0
-360 -370 0
-356 -361 0
-357 -362 0
-358 -363 0
-359 -364 0
-360 -365 0
-351 -371 0
-352 -372 0
-353 -373 0
-354 -374 0
-355 -375 0
-351 -366 0
-352 -367 0
-353 -368 0
-354 -369 0
-355 -370 0
-351 -356 0
-352 -357 0
-353 -358 0
-354 -359 0
-355 -360 0
-346 -366 0
-347 -367 0
-348 -368 0
-349 -369 0
-350 -370 0
-346 -351 0
-347 -352 0
-348 -353 0
-349 -354 0
-350 -355 0
-341 -361 0
-342 -362 0
-343 -363 0
-344 -364 0
-345 -365 0
-341 -356 0
-342 -357 0
-343 -358 0
-344 -359 0
-345 -360 0
-341 -351 0
-342 -352 0
-343 -353 0
-344 -354 0
-345 -355 0
-341 -346 0
-342 -347 0
-343 -348 0
-344 -349 0
-345 -350 0
-336 -346 0
-337 -347 0
-338 -348 0
-339 -349 0
-340 -350 0
-336 -341 0
-337 -342 0
-338 -343 0
-339 -344 0
-340 -345 0
-331 -336 0
-332 -337 0
-333 -338 0
-334 -339 0
-335 -340 0
-326 -336 0
-327 -337 0
-328 -338 0
-329 -339 0
-330 -340 0
-321 -341 0
-322 -342 0
-323 -343 0
-324 -344 0
-325 -345 0
-321 -331 0
-322 -332 0
-323 -333 0
-324 -334 0
-325 -335 0
-321 -326 0
-322 -327 0
-323 -328 0
-324 -329 0
-325 -330 0
-316 -331 0
-317 -332 0
-318 -333 0
-319 -334 0
-320 -335 0
-301 -321 0
-302 -322 0
-303 -323 0
-304 -324 0
-305 -325 0
-301 -316 0
-302 -317 0
-303 -318 0
-304 -319 0
-305 -320 0
-301 -306 0
-302 -307 0
-303 -308 0
-304 -309 0
-305 -310 0
-296 -316 0
-297 -317 0
-298 -318 0
-299 -319 0
-300 -320 0
-296 -301 0
-297 -302 0
-298 -303 0
-299 -304 0
-300 -305 0
-291 -306 0
-292 -307 0
-293 -308 0
-294 -309 0
-295 -310 0
-291 -301 0
-292 -302 0
-293 -303 0
-294 -304 0
-295 -305 0
-286 -306 0
-287 -307 0
-288 -308 0
-289 -309 0
-290 -310 0
-281 -291 0
-282 -292 0
-283 -293 0
-284 -294 0
-285 -295 0
-281 -286 0
-282 -287 0
-283 -288 0
-284 -289 0
-285 -290 0
-276 -286 0
-277 -287 0
-278 -288 0
-279 -289 0
-280 -290 0
-276 -281 0
-277 -282 0
-278 -283 0
-279 -284 0
-280 -285 0
-271 -286 0
-272 -287 0
-273 -288 0
-274 -289 0
-275 -290 0
-266 -286 0
-267 -287 0
-268 -288 0
-269 -289 0
-270 -290 0
-266 -281 0
-267 -282 0
-268 -283 0
-269 -284 0
-270 -285 0
-261 -281 0
-262 -282 0
-263 -283 0
-264 -284 0
-265 -285 0
-261 -276 0
-262 -277 0
-263 -278 0
-264 -279 0
-265 -280 0
-261 -271 0
-262 -272 0
-263 -273 0
-264 -274 0
-265 -275 0
-261 -266 0
-262 -267 0
-263 -268 0
-264 -269 0
-265 -270 0
-256 -276 0
-257 -277 0
-258 -278 0
-259 -279 0
-260 -280 0
-256 -271 0
-257 -272 0
-258 -273 0
-259 -274 0
-260 -275 0
-256 -266 0
-257 -267 0
-258 -268 0
-259 -269 0
-260 -270 0
-256 -261 0
-257 -262 0
-258 -263 0
-259 -264 0
-260 -265 0
-251 -261 0
-252 -262 0
-253 -263 0
-254 -264 0
-255 -265 0
-251 -256 0
-252 -257 0
-253 -258 0
-254 -259 0
-255 -260 0
-246 -256 0
-247 -257 0
-248 -258 0
-249 -259 0
-250 -260 0
-246 -251 0
-247 -252 0
-248 -253 0
-249 -254 0
-250 -255 0
-241 -261 0
-242 -262 0
-243 -263 0
-244 -264 0
-245 -265 0
-241 -246 0
-242 -247 0
-243 -248 0
-244 -249 0
-245 -250 0
-236 -251 0
-237 -252 0
-238 -253 0
-239 -254 0
-240 -255 0
-236 -246 0
-237 -247 0
-238 -248 0
-239 -249 0
-240 -250 0
-226 -236 0
-227 -237 0
-228 -238 0
-229 -239 0
-230 -240 0
-221 -226 0
-222 -227 0
-223 -228 0
-224 -229 0
-225 -230 0
-216 -231 0
-217 -232 0
-218 -233 0
-219 -234 0
-220 -235 0
-216 -226 0
-217 -227 0
-218 -228 0
-219 -229 0
-220 -230 0
-211 -231 0
-212 -232 0
-213 -233 0
-214 -234 0
-215 -235 0
-211 -221 0
-212 -222 0
-213 -223 0
-214 -224 0
-215 -225 0
-206 -221 0
-207 -222 0
-208 -223 0
-209 -224 0
-210 -225 0
-206 -211 0
-207 -212 0
-208 -213 0
-209 -214 0
-210 -215 0
-201 -221 0
-202 -222 0
-203 -223 0
-204 -224 0
-205 -225 0
-201 -216 0
-202 -217 0
-203 -218 0
-204 -219 0
-205 -220 0
-196 -216 0
-197 -217 0
-198 -218 0
-199 -219 0
-200 -220 0
-196 -211 0
-197 -212 0
-198 -213 0
-199 -214 0
-200 -215 0
-191 -211 0
-192 -212 0
-193 -213 0
-194 -214 0
-195 -215 0
-186 -206 0
-187 -207 0
-188 -208 0
-189 -209 0
-190 -210 0
-186 -191 0
-187 -192 0
-188 -193 0
-189 -194 0
-190 -195 0
-181 -201 0
-182 -202 0
-183 -203 0
-184 -204 0
-185 -205 0
-171 -186 0
-172 -187 0
-173 -188 0
-174 -189 0
-175 -190 0
-166 -181 0
-167 -182 0
-168 -183 0
-169 -184 0
-170 -185 0
-166 -176 0
-167 -177 0
-168 -178 0
-169 -179 0
-170 -180 0
-161 -166 0
-162 -167 0
-163 -168 0
-164 -169 0
-165 -170 0
-156 -176 0
-157 -177 0
-158 -178 0
-159 -179 0
-160 -180 0
-151 -171 0
-152 -172 0
-153 -173 0
-154 -174 0
-155 -175 0
-151 -166 0
-152 -167 0
-153 -168 0
-154 -169 0
-155 -170 0
-146 -166 0
-147 -167 0
-148 -168 0
-149 -169 0
-150 -170 0
-146 -156 0
-147 -157 0
-148 -158 0
-149 -159 0
-150 -160 0
-141 -161 0
-142 -162 0
-143 -163 0
-144 -164 0
-145 -165 0
-141 -151 0
-142 -152 0
-143 -153 0
-144 -154 0
-145 -155 0
-141 -146 0
-142 -147 0
-143 -148 0
-144 -149 0
-145 -150 0
-136 -151 0
-137 -152 0
-138 -153 0
-139 -154 0
-140 -155 0
-136 -146 0
-137 -147 0
-138 -148 0
-139 -149 0
-140 -150 0
-131 -146 0
-132 -147 0
-133 -148 0
-134 -149 0
-135 -150 0
-131 -141 0
-132 -142 0
-133 -143 0
-134 -144 0
-135 -145 0
-121 -141 0
-122 -142 0
-123 -143 0
-124 -144 0
-125 -145 0
-121 -136 0
-122 -137 0
-123 -138 0
-124 -139 0
-125 -140 0
-116 -136 0
-117 -137 0
-118 -138 0
-119 -139 0
-120 -140 0
-116 -126 0
-117 -127 0
-118 -128 0
-119 -129 0
-120 -130 0
-116 -121 0
-117 -122 0
-118 -123 0
-119 -124 0
-120 -125 0
-111 -126 0
-112 -127 0
-113 -128 0
-114 -129 0
-115 -130 0
-111 -121 0
-112 -122 0
-113 -123 0
-114 -124 0
-115 -125 0
-111 -116 0
-112 -117 0
-113 -118 0
-114 -119 0
-115 -120 0
-106 -121 0
-107 -122 0
-108 -123 0
-109 -124 0
-110 -125 0
-106 -116 0
-107 -117 0
-108 -118 0
-109 -119 0
-110 -120 0
-101 -121 0
-102 -122 0
-103 -123 0
-104 -124 0
-105 -125 0
-96 -101 0
-97 -102 0
-98 -103 0
-99 -104 0
-100 -105 0
-91 -106 0
-92 -107 0
-93 -108 0
-94 -109 0
-95 -110 0
-86 -101 0
-87 -102 0
-88 -103 0
-89 -104 0
-90 -105 0
-86 -91 0
-87 -92 0
-88 -93 0
-89 -94 0
-90 -95 0
-81 -101 0
-82 -102 0
-83 -103 0
-84 -104 0
-85 -105 0
-76 -91 0
-77 -92 0
-78 -93 0
-79 -94 0
-80 -95 0
-76 -81 0
-77 -82 0
-78 -83 0
-79 -84 0
-80 -85 0
-71 -86 0
-72 -87 0
-73 -88 0
-74 -89 0
-75 -90 0
-71 -76 0
-72 -77 0
-73 -78 0
-74 -79 0
-75 -80 0
-66 -76 0
-67 -77 0
-68 -78 0
-69 -79 0
-70 -80 0
-61 -76 0
-62 -77 0
-63 -78 0
-64 -79 0
-65 -80 0
-61 -66 0
-62 -67 0
-63 -68 0
-64 -69 0
-65 -70 0
-56 -76 0
-57 -77 0
-58 -78 0
-59 -79 0
-60 -80 0
-56 -66 0
-57 -67 0
-58 -68 0
-59 -69 0
-60 -70 0
-56 -61 0
-57 -62 0
-58 -63 0
-59 -64 0
-60 -65 0
-46 -66 0
-47 -67 0
-48 -68 0
-49 -69 0
-50 -70 0
-46 -56 0
-47 -57 0
-48 -58 0
-49 -59 0
-50 -60 0
-41 -56 0
-42 -57 0
-43 -58 0
-44 -59 0
-45 -60 0
-41 -51 0
-42 -52 0
-43 -53 0
-44 -54 0
-45 -55 0
-41 -46 0
-42 -47 0
-43 -48 0
-44 -49 0
-45 -50 0
-36 -56 0
-37 -57 0
-38 -58 0
-39 -59 0
-40 -60 0
-36 -41 0
-37 -42 0
-38 -43 0
-39 -44 0
-40 -45 0
-31 -51 0
-32 -52 0
-33 -53 0
-34 -54 0
-35 -55 0
-31 -46 0
-32 -47 0
-33 -48 0
-34 -49 0
-35 -50 0
-31 -36 0
-32 -37 0
-33 -38 0
-34 -39 0
-35 -40 0
-26 -41 0
-27 -42 0
-28 -43 0
-29 -44 0
-30 -45 0
-26 -31 0
-27 -32 0
-28 -33 0
-29 -34 0
-30 -35 0
-21 -41 0
-22 -42 0
-23 -43 0
-24 -44 0
-25 -45 0
-21 -36 0
-22 -37 0
-23 -38 0
-24 -39 0
-25 -40 0
-21 -31 0
-22 -32 0
-23 -33 0
-24 -34 0
-25 -35 0
-21 -26 0
-22 -27 0
-23 -28 0
-24 -29 0
-25 -30 0
-16 -36 0
-17 -37 0
-18 -38 0
-19 -39 0
-20 -40 0
-16 -31 0
-17 -32 0
-18 -33 0
-19 -34 0
-20 -35 0
-16 -26 0
-17 -27 0
-18 -28 0
-19 -29 0
-20 -30 0
-11 -21 0
-12 -22 0
-13 -23 0
-14 -24 0
-15 -25 0
-11 -16 0
-12 -17 0
-13 -18 0
-14 -19 0
-15 -20 0
-6 -11 0
-7 -12 0
-8 -13 0
-9 -14 0
-10 -15 0
-1 -21 0
-2 -22 0
-3 -23 0
-4 -24 0
-5 -25 0
-1 -11 0
-2 -12 0
-3 -13 0
-4 -14 0
-5 -15 0
-351 -451 0
-352 -452 0
-353 -453 0
-354 -454 0
-355 -455 0
-66 -456 0
-67 -457 0
-68 -458 0
-69 -459 0
-70 -460 0
-366 -476 0
-367 -477 0
-368 -478 0
-369 -479 0
-370 -480 0
-21 -231 0
-22 -232 0
-23 -233 0
-24 -234 0
-25 -235 0
-186 -401 0
-187 -402 0
-188 -403 0
-189 -404 0
-190 -405 0
-11 -116 0
-12 -117 0
-13 -118 0
-14 -119 0
-15 -120 0
-196 -351 0
-197 -352 0
-198 -353 0
-199 -354 0
-200 -355 0
-6 -126 0
-7 -127 0
-8 -128 0
-9 -129 0
-10 -130 0
-96 -181 0
-97 -182 0
-98 -183 0
-99 -184 0
-100 -185 0
-31 -401 0
-32 -402 0
-33 -403 0
-34 -404 0
-35 -405 0
-151 -181 0
-152 -182 0
-153 -183 0
-154 -184 0
-155 -185 0
-251 -391 0
-252 -392 0
-253 -393 0
-254 -394 0
-255 -395 0
-131 -431 0
-132 -432 0
-133 -433 0
-134 -434 0
-135 -435 0
-61 -116 0
-62 -117 0
-63 -118 0
-64 -119 0
-65 -120 0
-286 -341 0
-287 -342 0
-288 -343 0
-289 -344 0
-290 -345 0
-166 -416 0
-167 -417 0
-168 -418 0
-169 -419 0
-170 -420 0
-281 -331 0
-282 -332 0
-283 -333 0
-284 -334 0
-285 -335 0
-31 -191 0
-32 -192 0
-33 -193 0
-34 -194 0
-35 -195 0
-36 -436 0
-37 -437 0
-38 -438 0
-39 -439 0
-40 -440 0
-181 -241 0
-182 -242 0
-183 -243 0
-184 -244 0
-185 -245 0
-46 -261 0
-47 -262 0
-48 -263 0
-49 -264 0
-50 -265 0
-26 -231 0
-27 -232 0
-28 -233 0
-29 -234 0
-30 -235 0
-76 -326 0
-77 -327 0
-78 -328 0
-79 -329 0
-80 -330 0
-301 -331 0
-302 -332 0
-303 -333 0
-304 -334 0
-305 -335 0
-116 -461 0
-117 -462 0
-118 -463 0
-119 -464 0
-120 -465 0
-261 -291 0
-262 -292 0
-263 -293 0
-264 -294 0
-265 -295 0
-321 -461 0
-322 -462 0
-323 -463 0
-324 -464 0
-325 -465 0
-86 -436 0
-87 -437 0
-88 -438 0
-89 -439 0
-90 -440 0
-11 -401 0
-12 -402 0
-13 -403 0
-14 -404 0
-15 -405 0
-166 -211 0
-167 -212 0
-168 -213 0
-169 -214 0
-170 -215 0
-201 -496 0
-202 -497 0
-203 -498 0
-204 -499 0
-205 -500 0
-31 -176 0
-32 -177 0
-33 -178 0
-34 -179 0
-35 -180 0
-76 -371 0
-77 -372 0
-78 -373 0
-79 -374 0
-80 -375 0
-56 -291 0
-57 -292 0
-58 -293 0
-59 -294 0
-60 -295 0
-36 -336 0
-37 -337 0
-38 -338 0
-39 -339 0
-40 -340 0
-141 -206 0
-142 -207 0
-143 -208 0
-144 -209 0
-145 -210 0
-196 -241 0
-197 -242 0
-198 -243 0
-199 -244 0
-200 -245 0
-181 -486 0
-182 -487 0
-183 -488 0
-184 -489 0
-185 -490 0
-136 -321 0
-137 -322 0
-138 -323 0
-139 -324 0
-140 -325 0
-156 -371 0
-157 -372 0
-158 -373 0
-159 -374 0
-160 -375 0
-21 -486 0
-22 -487 0
-23 -488 0
-24 -489 0
-25 -490 0
-151 -406 0
-152 -407 0
-153 -408 0
-154 -409 0
-155 -410 0
-26 -321 0
-27 -322 0
-28 -323 0
-29 -324 0
-30 -325 0
-151 -326 0
-152 -327 0
-153 -328 0
-154 -329 0
-155 -330 0
-51 -486 0
-52 -487 0
-53 -488 0
-54 -489 0
-55 -490 0
-121 -186 0
-122 -187 0
-123 -188 0
-124 -189 0
-125 -190 0
-11 -186 0
-12 -187 0
-13 -188 0
-14 -189 0
-15 -190 0
-241 -421 0
-242 -422 0
-243 -423 0
-244 -424 0
-245 -425 0
-11 -296 0
-12 -297 0
-13 -298 0
-14 -299 0
-15 -300 0
-56 -401 0
-57 -402 0
-58 -403 0
-59 -404 0
-60 -405 0
-266 -446 0
-267 -447 0
-268 -448 0
-269 -449 0
-270 -450 0
-1 -36 0
-2 -37 0
-3 -38 0
-4 -39 0
-5 -40 0
-211 -341 0
-212 -342 0
-213 -343 0
-214 -344 0
-215 -345 0
-151 -266 0
-152 -267 0
-153 -268 0
-154 -269 0
-155 -270 0
-21 -491 0
-22 -492 0
-23 -493 0
-24 -494 0
-25 -495 0
-56 -346 0
-57 -347 0
-58 -348 0
-59 -349 0
-60 -350 0
-66 -101 0
-67 -102 0
-68 -103 0
-69 -104 0
-70 -105 0
-101 -216 0
-102 -217 0
-103 -218 0
-104 -219 0
-105 -220 0
-176 -456 0
-177 -457 0
-178 -458 0
-179 -459 0
-180 -460 0
-156 -461 0
-157 -462 0
-158 -463 0
-159 -464 0
-160 -465 0
-151 -201 0
-152 -202 0
-153 -203 0
-154 -204 0
-155 -205 0
-126 -356 0
-127 -357 0
-128 -358 0
-129 -359 0
-130 -360 0
-256 -386 0
-257 -387 0
-258 -388 0
-259 -389 0
-260 -390 0
-226 -406 0
-227 -407 0
-228 -408 0
-229 -409 0
-230 -410 0
-56 -441 0
-57 -442 0
-58 -443 0
-59 -444 0
-60 -445 0
-61 -316 0
-62 -317 0
-63 -318 0
-64 -319 0
-65 -320 0
-206 -291 0
-207 -292 0
-208 -293 0
-209 -294 0
-210 -295 0
-126 -426 0
-127 -427 0
-128 -428 0
-129 -429 0
-130 -430 0
-61 -301 0
-62 -302 0
-63 -303 0
-64 -304 0
-65 -305 0
-106 -391 0
-107 -392 0
-108 -393 0
-109 -394 0
-110 -395 0
-171 -391 0
-172 -392 0
-173 -393 0
-174 -394 0
-175 -395 0
-136 -491 0
-137 -492 0
-138 -493 0
-139 -494 0
-140 -495 0
-86 -331 0
-87 -332 0
-88 -333 0
-89 -334 0
-90 -335 0
-236 -486 0
-237 -487 0
-238 -488 0
-239 -489 0
-240 -490 0
-336 -441 0
-337 -442 0
-338 -443 0
-339 -444 0
-340 -445 0
-76 -206 0
-77 -207 0
-78 -208 0
-79 -209 0
-80 -210 0
-61 -486 0
-62 -487 0
-63 -488 0
-64 -489 0
-65 -490 0
-91 -321 0
-92 -322 0
-93 -323 0
-94 -324 0
-95 -325 0
-211 -281 0
-212 -282 0
-213 -283 0
-214 -284 0
-215 -285 0
-76 -116 0
-77 -117 0
-78 -118 0
-79 -119 0
-80 -120 0
-16 -206 0
-17 -207 0
-18 -208 0
-19 -209 0
-20 -210 0
-211 -446 0
-212 -447 0
-213 -448 0
-214 -449 0
-215 -450 0
-121 -181 0
-122 -182 0
-123 -183 0
-124 -184 0
-125 -185 0
-36 -416 0
-37 -417 0
-38 -418 0
-39 -419 0
-40 -420 0
-91 -181 0
-92 -182 0
-93 -183 0
-94 -184 0
-95 -185 0
-81 -231 0
-82 -232 0
-83 -233 0
-84 -234 0
-85 -235 0
-321 -396 0
-322 -397 0
-323 -398 0
-324 -399 0
-325 -400 0
-56 -381 0
-57 -382 0
-58 -383 0
-59 -384 0
-60 -385 0
-61 -246 0
-62 -247 0
-63 -248 0
-64 -249 0
-65 -250 0
-11 -436 0
-12 -437 0
-13 -438 0
-14 -439 0
-15 -440 0
-51 -391 0
-52 -392 0
-53 -393 0
-54 -394 0
-55 -395 0
-121 -146 0
-122 -147 0
-123 -148 0
-124 -149 0
-125 -150 0
-346 -491 0
-347 -492 0
-348 -493 0
-349 -494 0
-350 -495 0
-416 -476 0
-417 -477 0
-418 -478 0
-419 -479 0
-420 -480 0
-11 -381 0
-12 -382 0
-13 -383 0
-14 -384 0
-15 -385 0
-66 -266 0
-67 -267 0
-68 -268 0
-69 -269 0
-70 -270 0
-51 -456 0
-52 -457 0
-53 -458 0
-54 -459 0
-55 -460 0
-326 -486 0
-327 -487 0
-328 -488 0
-329 -489 0
-330 -490 0
-316 -376 0
-317 -377 0
-318 -378 0
-319 -379 0
-320 -380 0
-261 -441 0
-262 -442 0
-263 -443 0
-264 -444 0
-265 -445 0
-26 -486 0
-27 -487 0
-28 -488 0
-29 -489 0
-30 -490 0
-101 -251 0
-102 -252 0
-103 -253 0
-104 -254 0
-105 -255 0
-306 -336 0
-307 -337 0
-308 -338 0
-309 -339 0
-310 -340 0
-396 -451 0
-397 -452 0
-398 -453 0
-399 -454 0
-400 -455 0
-71 -451 0
-72 -452 0
-73 -453 0
-74 -454 0
-75 -455 0
-241 -346 0
-242 -347 0
-243 -348 0
-244 -349 0
-245 -350 0
-241 -276 0
-242 -277 0
-243 -278 0
-244 -279 0
-245 -280 0
-131 -261 0
-132 -262 0
-133 -263 0
-134 -264 0
-135 -265 0
-176 -421 0
-177 -422 0
-178 -423 0
-179 -424 0
-180 -425 0
-111 -276 0
-112 -277 0
-113 -278 0
-114 -279 0
-115 -280 0
-116 -401 0
-117 -402 0
-118 -403 0
-119 -404 0
-120 -405 0
-31 -136 0
-32 -137 0
-33 -138 0
-34 -139 0
-35 -140 0
-391 -441 0
-392 -442 0
-393 -443 0
-394 -444 0
-395 -445 0
-86 -181 0
-87 -182 0
-88 -183 0
-89 -184 0
-90 -185 0
-101 -341 0
-102 -342 0
-103 -343 0
-104 -344 0
-105 -345 0
-216 -481 0
-217 -482 0
-218 -483 0
-219 -484 0
-220 -485 0
-41 -481 0
-42 -482 0
-43 -483 0
-44 -484 0
-45 -485 0
-21 -271 0
-22 -272 0
-23 -273 0
-24 -274 0
-25 -275 0
-1 -231 0
-2 -232 0
-3 -233 0
-4 -234 0
-5 -235 0
-6 -216 0
-7 -217 0
-8 -218 0
-9 -219 0
-10 -220 0
-211 -476 0
-212 -477 0
-213 -478 0
-214 -479 0
-215 -480 0
-361 -496 0
-362 -497 0
-363 -498 0
-364 -499 0
-365 -500 0
-231 -321 0
-232 -322 0
-233 -323 0
-234 -324 0
-235 -325 0
-161 -331 0
-162 -332 0
-163 -333 0
-164 -334 0
-165 -335 0
-126 -486 0
-127 -487 0
-128 -488 0
-129 -489 0
-130 -490 0
-141 -371 0
-142 -372 0
-143 -373 0
-144 -374 0
-145 -375 0
-21 -441 0
-22 -442 0
-23 -443 0
-24 -444 0
-25 -445 0
-211 -311 0
-212 -312 0
-213 -313 0
-214 -314 0
-215 -315 0
-86 -406 0
-87 -407 0
-88 -408 0
-89 -409 0
-90 -410 0
-106 -211 0
-107 -212 0
-108 -213 0
-109 -214 0
-110 -215 0
-316 -421 0
-317 -422 0
-318 -423 0
-319 -424 0
-320 -425 0
-381 -436 0
-382 -437 0
-383 -438 0
-384 -439 0
-385 -440 0
-41 -316 0
-42 -317 0
-43 -318 0
-44 -319 0
-45 -320 0
-346 -406 0
-347 -407 0
-348 -408 0
-349 -409 0
-350 -410 0
-206 -406 0
-207 -407 0
-208 -408 0
-209 -409 0
-210 -410 0
-331 -486 0
-332 -487 0
-333 -488 0
-334 -489 0
-335 -490 0
-86 -256 0
-87 -257 0
-88 -258 0
-89 -259 0
-90 -260 0
-36 -366 0
-37 -367 0
-38 -368 0
-39 -369 0
-40 -370 0
-206 -361 0
-207 -362 0
-208 -363 0
-209 -364 0
-210 -365 0
-121 -331 0
-122 -332 0
-123 -333 0
-124 -334 0
-125 -335 0
-171 -426 0
-172 -427 0
-173 -428 0
-174 -429 0
-175 -430 0
-276 -451 0
-277 -452 0
-278 -453 0
-279 -454 0
-280 -455 0
-336 -496 0
-337 -497 0
-338 -498 0
-339 -499 0
-340 -500 0
-351 -456 0
-352 -457 0
-353 -458 0
-354 -459 0
-355 -460 0
-231 -461 0
-232 -462 0
-233 -463 0
-234 -464 0
-235 -465 0
-136 -196 0
-137 -197 0
-138 -198 0
-139 -199 0
-140 -200 0
-211 -461 0
-212 -462 0
-213 -463 0
-214 -464 0
-215 -465 0
-361 -436 0
-362 -437 0
-363 -438 0
-364 -439 0
-365 -440 0
-21 -196 0
-22 -197 0
-23 -198 0
-24 -199 0
-25 -200 0
-186 -466 0
-187 -467 0
-188 -468 0
-189 -469 0
-190 -470 0
-181 -221 0
-182 -222 0
-183 -223 0
-184 -224 0
-185 -225 0
-386 -481 0
-387 -482 0
-388 -483 0
-389 -484 0
-390 -485 0
-16 -456 0
-17 -457 0
-18 -458 0
-19 -459 0
-20 -460 0
-111 -486 0
-112 -487 0
-113 -488 0
-114 -489 0
-115 -490 0
-351 -491 0
-352 -492 0
-353 -493 0
-354 -494 0
-355 -495 0
-141 -411 0
-142 -412 0
-143 -413 0
-144 -414 0
-145 -415 0
-101 -371 0
-102 -372 0
-103 -373 0
-104 -374 0
-105 -375 0
-421 -466 0
-422 -467 0
-423 -468 0
-424 -469 0
-425 -470 0
-286 -401 0
-287 -402 0
-288 -403 0
-289 -404 0
-290 -405 0
-411 -496 0
-412 -497 0
-413 -498 0
-414 -499 0
-415 -500 0
-16 -386 0
-17 -387 0
-18 -388 0
-19 -389 0
-20 -390 0
-71 -356 0
-72 -357 0
-73 -358 0
-74 -359 0
-75 -360 0
-106 -176 0
-107 -177 0
-108 -178 0
-109 -179 0
-110 -180 0
-386 -461 0
-387 -462 0
-388 -463 0
-389 -464 0
-390 -465 0
-26 -266 0
-27 -267 0
-28 -268 0
-29 -269 0
-30 -270 0
-336 -426 0
-337 -427 0
-338 -428 0
-339 -429 0
-340 -430 0
-26 -146 0
-27 -147 0
-28 -148 0
-29 -149 0
-30 -150 0
-316 -401 0
-317 -402 0
-318 -403 0
-319 -404 0
-320 -405 0
-11 -406 0
-12 -407 0
-13 -408 0
-14 -409 0
-15 -410 0
-31 -486 0
-32 -487 0
-33 -488 0
-34 -489 0
-35 -490 0
-86 -401 0
-87 -402 0
-88 -403 0
-89 -404 0
-90 -405 0
-176 -236 0
-177 -237 0
-178 -238 0
-179 -239 0
-180 -240 0
-31 -431 0
-32 -432 0
-33 -433 0
-34 -434 0
-35 -435 0
-81 -261 0
-82 -262 0
-83 -263 0
-84 -264 0
-85 -265 0
-11 -321 0
-12 -322 0
-13 -323 0
-14 -324 0
-15 -325 0
-231 -346 0
-232 -347 0
-233 -348 0
-234 -349 0
-235 -350 0
-201 -421 0
-202 -422 0
-203 -423 0
-204 -424 0
-205 -425 0
-1 -401 0
-2 -402 0
-3 -403 0
-4 -404 0
-5 -405 0
-61 -111 0
-62 -112 0
-63 -113 0
-64 -114 0
-65 -115 0
-66 -496 0
-67 -497 0
-68 -498 0
-69 -499 0
-70 -500 0
-61 -401 0
-62 -402 0
-63 -403 0
-64 -404 0
-65 -405 0
-136 -246 0
-137 -247 0
-138 -248 0
-139 -249 0
-140 -250 0
-241 -371 0
-242 -372 0
-243 -373 0
-244 -374 0
-245 -375 0
